results_rootrelaxation/bin012_080_001.srr.sol
solution status: optimal solution found
objective value:                                   17
_var676_                             0.15151515151515 	(obj:1)
_var678_                            0.515151515151517 	(obj:0)
_var684_                            0.393939393939392 	(obj:1)
_var707_                            0.212121212121212 	(obj:2)
_var710_                           0.0606060606060613 	(obj:2)
_var726_                            0.757575757575756 	(obj:1)
_var757_                           0.0303030303030286 	(obj:2)
_var764_                              0.6969696969697 	(obj:1)
_var772_                            0.212121212121212 	(obj:1)
_var778_                           0.0606060606060598 	(obj:3)
_var780_                            0.515151515151517 	(obj:1)
_var783_                            0.393939393939394 	(obj:2)
_var786_                             0.15151515151515 	(obj:4)
_var795_                            0.030303030303033 	(obj:4)
_var800_                            0.575757575757576 	(obj:2)
_var804_                            0.787878787878787 	(obj:1)
_var809_                            0.121212121212118 	(obj:3)
_var814_                            0.242424242424243 	(obj:1)
_var834_                            0.181818181818182 	(obj:2)
_var843_                            0.484848484848482 	(obj:0)
_var844_                           0.0303030303030296 	(obj:2)
_var845_                            0.393939393939394 	(obj:1)
_var851_                            0.333333333333333 	(obj:1)
_var853_                            0.242424242424246 	(obj:4)
_var855_                            0.272727272727273 	(obj:1)
_var858_                             0.15151515151515 	(obj:1)
_var860_                           0.0606060606060599 	(obj:2)
_var871_                             0.15151515151515 	(obj:3)
_var872_                            0.121212121212123 	(obj:2)
_var876_                             0.15151515151515 	(obj:2)
_var882_                           0.0606060606060617 	(obj:2)
_var884_                           0.0303030303030297 	(obj:3)
_var888_                             0.15151515151515 	(obj:2)
_var890_                           0.0606060606060606 	(obj:2)
_var892_                           0.0606060606060614 	(obj:2)
_var896_                            0.181818181818183 	(obj:2)
_var901_                             0.15151515151515 	(obj:3)
_var902_                             0.36363636363636 	(obj:2)
_var903_                            0.272727272727271 	(obj:3)
_var907_                            0.333333333333333 	(obj:2)
_var910_                            0.151515151515149 	(obj:3)
_var912_                            0.151515151515152 	(obj:2)
_var914_                            0.121212121212122 	(obj:2)
_var916_                            0.212121212121213 	(obj:2)
_var918_                            0.121212121212122 	(obj:3)
_var922_                           0.0303030303030321 	(obj:2)
_var923_                           0.0606060606060608 	(obj:2)
